50
1 0 137
2 0 68
2 1 47
3 0 129
3 1 16
3 2 17
4 0 94
4 1 59
4 2 154
4 3 144
5 0 93
5 1 46
5 2 56
5 3 81
5 4 31
6 0 2
6 1 13
6 2 99
6 3 52
6 4 51
6 5 140
7 0 153
7 1 116
7 2 137
7 3 44
7 4 1
7 5 70
7 6 76
8 0 34
8 1 153
8 3 115
8 4 84
8 5 107
8 6 62
8 7 31
9 0 53
9 1 2
9 2 93
9 3 3
9 4 10
9 5 1
9 6 28
9 7 157
9 8 151
10 0 2
10 1 127
10 2 152
10 3 113
10 4 46
10 5 45
10 6 32
10 7 8
10 8 153
10 9 62
11 0 159
11 1 92
11 2 77
11 3 132
11 4 92
11 5 114
11 6 56
11 7 129
11 8 22
11 9 78
11 10 29
12 0 75
12 1 59
12 2 4
12 4 79
12 5 121
12 6 106
12 7 108
12 8 33
12 9 124
12 10 155
12 11 85
13 0 7
13 1 97
13 2 29
13 3 124
13 4 64
13 5 132
13 6 140
13 7 62
13 8 61
13 12 103
14 0 138
14 1 39
14 2 133
14 3 59
14 4 55
14 5 89
14 6 105
14 8 54
14 9 111
14 10 137
14 11 159
14 12 149
15 0 153
15 1 111
15 2 21
15 3 120
15 4 108
15 5 80
15 6 101
15 7 33
15 8 64
15 9 91
15 10 88
15 12 28
15 14 96
16 0 133
16 1 153
16 2 2
16 3 142
16 4 64
16 5 154
16 6 147
16 7 127
16 8 157
16 9 15
16 10 33
16 11 61
16 12 1
16 13 101
16 14 103
17 0 20
17 1 113
17 2 125
17 3 144
17 5 45
17 6 84
17 7 129
17 8 107
17 10 77
17 12 45
17 13 42
17 14 40
17 15 73
17 16 24
18 1 145
18 2 22
18 3 54
18 4 159
18 5 97
18 6 19
18 7 53
18 8 124
18 9 100
18 10 97
18 11 99
18 12 83
18 13 23
18 14 129
18 17 90
19 1 19
19 2 112
19 3 55
19 4 20
19 5 155
19 6 92
19 7 1
19 8 119
19 9 145
19 11 1
19 12 34
19 13 117
19 14 23
19 15 151
19 17 41
19 18 33
20 0 96
20 2 148
20 3 14
20 4 150
20 5 19
20 6 119
20 7 20
20 9 50
20 10 33
20 11 117
20 12 15
20 13 72
20 14 24
20 15 130
20 16 133
20 18 133
20 19 122
21 0 74
21 1 79
21 2 40
21 3 131
21 4 27
21 5 9
21 6 127
21 7 62
21 8 69
21 9 41
21 10 102
21 11 43
21 12 34
21 13 123
21 14 95
21 15 102
21 16 108
21 17 96
21 18 104
21 19 74
21 20 79
22 0 41
22 1 3
22 2 31
22 3 53
22 4 123
22 5 71
22 6 10
22 7 138
22 8 78
22 9 70
22 10 121
22 11 100
22 12 6
22 13 125
22 14 44
22 15 103
22 16 151
22 17 76
22 19 57
22 20 87
22 21 54
23 0 108
23 1 159
23 2 152
23 3 77
23 4 158
23 5 23
23 6 68
23 7 22
23 8 29
23 9 151
23 10 11
23 11 26
23 12 69
23 13 62
23 15 157
23 16 101
23 17 86
23 18 46
23 19 101
23 20 158
23 21 140
23 22 47
24 0 53
24 1 71
24 2 125
24 3 100
24 4 23
24 5 7
24 6 108
24 7 103
24 8 4
24 9 91
24 10 70
24 11 66
24 12 93
24 13 104
24 14 100
24 15 155
24 16 5
24 17 137
24 18 97
24 19 93
24 20 160
24 21 31
24 22 108
24 23 15
25 0 139
25 1 87
25 2 109
25 3 82
25 4 128
25 5 158
25 6 121
25 7 51
25 8 111
25 9 18
25 10 18
25 11 48
25 13 153
25 14 127
25 15 128
25 16 85
25 17 142
25 18 60
25 20 153
25 21 76
25 24 105
26 0 79
26 1 26
26 3 14
26 4 120
26 5 46
26 6 32
26 7 16
26 8 103
26 9 10
26 10 91
26 11 2
26 12 93
26 16 14
26 17 93
26 18 95
26 20 62
26 21 34
26 22 50
26 23 51
26 24 150
26 25 91
27 0 145
27 1 23
27 2 32
27 3 46
27 4 79
27 6 82
27 7 115
27 8 126
27 9 95
27 10 109
27 11 35
27 12 19
27 13 116
27 14 44
27 15 18
27 16 75
27 17 46
27 18 134
27 20 71
27 21 148
27 22 88
27 23 156
27 24 138
27 26 69
28 0 151
28 1 68
28 3 150
28 4 32
28 5 9
28 7 73
28 8 36
28 9 79
28 10 42
28 12 100
28 13 116
28 14 22
28 15 160
28 16 15
28 17 51
28 18 105
28 19 78
28 20 33
28 21 154
28 22 61
28 23 10
28 24 132
28 25 60
28 26 53
28 27 94
29 0 74
29 1 11
29 2 143
29 3 138
29 4 30
29 6 35
29 7 76
29 8 73
29 9 76
29 10 72
29 11 22
29 12 91
29 13 12
29 14 132
29 15 14
29 16 80
29 17 13
29 18 25
29 19 120
29 20 158
29 21 45
29 23 75
29 24 35
29 25 64
29 26 134
29 27 55
29 28 3
30 0 98
30 1 149
30 2 134
30 3 45
30 5 62
30 6 72
30 7 60
30 8 146
30 9 102
30 10 24
30 11 28
30 12 113
30 13 9
30 14 85
30 15 127
30 16 147
30 17 43
30 20 26
30 21 33
30 22 5
30 23 59
30 26 14
30 28 121
30 29 148
31 0 158
31 1 19
31 2 149
31 3 12
31 4 120
31 5 52
31 6 21
31 7 63
31 8 151
31 9 35
31 10 40
31 11 130
31 12 48
31 13 27
31 14 57
31 15 58
31 16 150
31 18 153
31 19 87
31 20 99
31 22 25
31 23 99
31 24 6
31 25 142
31 26 46
31 27 66
31 28 23
31 29 115
31 30 29
32 0 139
32 2 18
32 3 35
32 4 114
32 5 86
32 6 130
32 7 50
32 8 101
32 9 116
32 10 98
32 11 122
32 12 104
32 13 37
32 14 159
32 15 33
32 16 80
32 17 60
32 18 98
32 19 19
32 20 108
32 21 148
32 22 136
32 23 6
32 26 119
32 27 116
32 28 138
32 29 129
32 30 34
32 31 10
33 0 155
33 1 1
33 2 114
33 3 4
33 4 157
33 5 146
33 6 126
33 7 53
33 8 74
33 9 103
33 11 44
33 12 77
33 14 101
33 15 67
33 16 45
33 17 106
33 18 57
33 20 141
33 21 136
33 22 105
33 23 18
33 24 112
33 25 18
33 26 56
33 27 116
33 28 79
33 29 31
33 30 87
33 31 158
33 32 104
34 0 123
34 1 23
34 3 56
34 5 148
34 7 68
34 8 121
34 10 6
34 11 154
34 12 98
34 13 132
34 14 139
34 15 22
34 16 33
34 17 9
34 18 90
34 20 71
34 21 65
34 22 123
34 23 92
34 24 101
34 26 79
34 27 62
34 28 138
34 29 89
34 30 150
34 31 67
34 32 46
34 33 127
35 0 13
35 1 1
35 2 30
35 3 23
35 4 158
35 5 25
35 7 16
35 8 155
35 9 28
35 10 53
35 11 113
35 12 51
35 13 46
35 14 78
35 15 61
35 17 41
35 18 102
35 19 94
35 20 53
35 22 7
35 23 74
35 24 25
35 25 66
35 26 123
35 27 9
35 28 69
35 29 124
35 32 99
35 33 134
35 34 148
36 0 144
36 1 54
36 2 98
36 3 95
36 4 19
36 5 54
36 6 150
36 7 153
36 8 144
36 9 31
36 10 43
36 11 148
36 12 120
36 13 151
36 14 156
36 15 14
36 16 136
36 17 53
36 18 128
36 19 116
36 20 74
36 22 146
36 23 85
36 24 30
36 25 102
36 26 131
36 27 70
36 28 150
36 29 74
36 30 104
36 31 12
36 32 15
36 33 22
36 34 105
36 35 83
37 0 141
37 1 79
37 2 139
37 3 90
37 4 143
37 5 114
37 6 92
37 7 25
37 8 25
37 10 40
37 11 120
37 12 17
37 13 69
37 14 155
37 15 145
37 16 143
37 17 79
37 18 147
37 19 17
37 20 29
37 21 106
37 22 66
37 23 35
37 25 119
37 26 41
37 27 97
37 28 99
37 29 136
37 30 60
37 31 10
37 32 109
37 33 151
37 34 115
37 35 88
37 36 23
38 1 56
38 2 91
38 3 46
38 4 15
38 5 37
38 6 59
38 7 77
38 8 158
38 9 114
38 10 18
38 11 120
38 12 84
38 13 48
38 15 78
38 16 74
38 17 127
38 18 15
38 19 119
38 20 32
38 21 92
38 22 120
38 23 43
38 24 34
38 25 30
38 26 149
38 27 85
38 28 84
38 29 88
38 30 44
38 31 97
38 32 149
38 33 51
38 34 139
38 35 78
38 36 92
38 37 124
39 0 16
39 1 5
39 2 74
39 3 102
39 4 21
39 5 107
39 6 22
39 7 33
39 8 155
39 9 4
39 10 22
39 11 124
39 12 28
39 14 1
39 15 93
39 16 139
39 17 80
39 18 122
39 19 131
39 20 1
39 21 123
39 22 116
39 23 34
39 24 100
39 25 143
39 26 154
39 27 122
39 28 115
39 29 65
39 31 11
39 32 148
39 33 73
39 34 131
39 35 3
39 36 119
39 37 48
39 38 154
40 0 153
40 1 156
40 2 2
40 4 134
40 5 143
40 6 26
40 7 71
40 8 67
40 9 129
40 10 13
40 11 22
40 13 92
40 14 26
40 16 23
40 17 140
40 18 8
40 19 103
40 20 111
40 21 59
40 22 114
40 23 24
40 24 110
40 25 1
40 26 45
40 27 7
40 28 130
40 29 94
40 30 121
40 31 43
40 32 149
40 33 33
40 34 74
40 35 94
40 36 90
40 37 118
40 39 118
41 0 7
41 1 143
41 2 128
41 3 158
41 4 26
41 5 20
41 6 90
41 7 19
41 8 96
41 9 141
41 10 88
41 11 145
41 12 133
41 13 27
41 14 121
41 15 40
41 16 152
41 18 99
41 19 117
41 20 146
41 21 98
41 22 55
41 24 113
41 25 51
41 26 10
41 27 93
41 28 43
41 29 102
41 30 71
41 32 117
41 33 31
41 34 75
41 35 21
41 38 31
41 39 122
41 40 88
42 0 134
42 1 112
42 3 90
42 4 129
42 5 66
42 6 121
42 7 75
42 9 150
42 10 2
42 11 97
42 12 121
42 13 16
42 14 34
42 15 53
42 16 16
42 17 83
42 18 32
42 19 127
42 20 37
42 21 93
42 22 135
42 23 147
42 24 129
42 26 78
42 27 158
42 28 102
42 30 80
42 31 91
42 32 143
42 33 106
42 34 88
42 35 18
42 36 114
42 37 60
42 38 108
42 39 94
42 40 19
42 41 68
43 0 85
43 1 31
43 2 13
43 3 73
43 4 143
43 5 123
43 6 63
43 7 88
43 8 58
43 9 42
43 10 51
43 12 84
43 13 77
43 14 74
43 15 95
43 16 33
43 17 149
43 18 82
43 19 63
43 20 8
43 21 1
43 22 48
43 23 52
43 24 92
43 25 141
43 26 67
43 27 55
43 28 97
43 29 66
43 31 67
43 34 3
43 35 47
43 36 104
43 37 83
43 38 85
43 39 10
43 40 75
43 41 49
43 42 96
44 0 123
44 1 60
44 2 146
44 3 41
44 4 18
44 5 70
44 6 45
44 7 40
44 8 94
44 9 102
44 10 61
44 11 25
44 12 45
44 13 81
44 14 129
44 15 84
44 16 103
44 17 140
44 18 126
44 19 70
44 20 70
44 21 94
44 23 88
44 26 70
44 27 97
44 28 111
44 29 9
44 30 33
44 31 133
44 32 83
44 33 103
44 34 28
44 35 25
44 36 40
44 37 143
44 38 24
44 39 30
44 40 67
44 41 129
44 42 62
44 43 53
45 0 25
45 1 34
45 2 20
45 3 35
45 4 13
45 5 21
45 6 145
45 7 125
45 8 15
45 9 132
45 10 109
45 11 23
45 12 85
45 13 101
45 14 116
45 15 123
45 17 155
45 18 98
45 19 9
45 20 25
45 21 43
45 22 84
45 23 5
45 24 45
45 25 37
45 26 146
45 27 37
45 28 55
45 29 144
45 30 111
45 31 9
45 33 3
45 34 90
45 35 17
45 36 51
45 37 96
45 38 64
45 39 41
45 40 138
45 41 117
45 42 159
45 43 62
45 44 151
46 0 147
46 1 87
46 2 140
46 3 53
46 4 73
46 5 97
46 6 79
46 7 122
46 8 11
46 9 15
46 10 152
46 11 17
46 12 18
46 13 106
46 14 64
46 15 57
46 16 150
46 17 28
46 18 9
46 20 69
46 21 32
46 22 89
46 23 134
46 24 88
46 25 72
46 26 9
46 29 144
46 30 88
46 31 153
46 32 128
46 33 116
46 34 13
46 35 95
46 37 112
46 38 140
46 39 81
46 40 138
46 42 24
46 44 18
46 45 127
47 2 50
47 3 22
47 4 1
47 5 27
47 6 136
47 7 63
47 8 36
47 9 96
47 10 56
47 11 65
47 12 152
47 13 1
47 14 137
47 15 1
47 17 40
47 18 134
47 19 38
47 20 160
47 21 2
47 22 12
47 24 127
47 26 46
47 27 29
47 28 122
47 29 104
47 30 58
47 31 136
47 32 33
47 33 99
47 34 18
47 35 159
47 36 88
47 37 54
47 39 115
47 40 121
47 42 95
47 43 77
47 44 144
47 45 81
47 46 83
48 0 125
48 1 40
48 2 63
48 4 34
48 5 103
48 7 147
48 8 145
48 9 20
48 10 23
48 11 21
48 12 77
48 13 51
48 14 26
48 15 55
48 16 30
48 17 138
48 18 59
48 19 68
48 20 30
48 22 62
48 23 137
48 24 35
48 25 2
48 26 151
48 27 100
48 28 79
48 29 114
48 30 41
48 31 64
48 32 89
48 33 52
48 34 145
48 35 149
48 36 144
48 37 159
48 38 56
48 39 44
48 40 9
48 41 37
48 42 115
48 43 78
48 44 104
48 45 5
48 46 32
48 47 53
49 0 83
49 1 12
49 2 107
49 3 131
49 4 22
49 5 87
49 6 96
49 7 18
49 8 4
49 9 101
49 10 63
49 11 11
49 12 136
49 13 105
49 14 88
49 15 59
49 16 65
49 17 61
49 18 87
49 19 24
49 20 127
49 21 12
49 22 27
49 23 72
49 24 48
49 26 32
49 27 40
49 29 146
49 30 4
49 31 35
49 32 5
49 34 91
49 35 109
49 36 71
49 37 68
49 38 93
49 39 15
49 40 82
49 41 108
49 42 1
49 43 114
49 44 105
49 46 122
49 47 110
49 48 116
